
Gurobi 7.5.2 (mac64, Python) logging started Thu Dec  7 16:50:59 2017

Academic license - for non-commercial use only

Gurobi 7.5.2 (mac64, Python) logging started Thu Dec  7 16:51:39 2017

Academic license - for non-commercial use only

Gurobi 7.5.2 (mac64, Python) logging started Fri Dec  8 15:09:35 2017

Academic license - for non-commercial use only

Gurobi 7.5.2 (mac64, Python) logging started Fri Dec  8 15:18:10 2017

Academic license - for non-commercial use only

Gurobi 7.5.2 (mac64, Python) logging started Fri Dec  8 15:19:08 2017

Academic license - for non-commercial use only

Gurobi 7.5.2 (mac64, Python) logging started Fri Dec  8 15:32:16 2017

Academic license - for non-commercial use only

Gurobi 7.5.2 (mac64, Python) logging started Fri Dec  8 15:33:49 2017

Academic license - for non-commercial use only

Gurobi 7.5.2 (mac64, Python) logging started Sat Dec  9 13:52:11 2017

Academic license - for non-commercial use only

Gurobi 7.5.2 (mac64, Python) logging started Sun Dec 10 12:24:53 2017

Academic license - for non-commercial use only

Gurobi 7.5.2 (mac64, Python) logging started Mon Dec 11 11:01:33 2017

Academic license - for non-commercial use only

Gurobi 7.5.2 (mac64, Python) logging started Mon Dec 11 11:54:16 2017

Academic license - for non-commercial use only

Gurobi 7.5.2 (mac64, Python) logging started Mon Dec 11 16:05:03 2017

Academic license - for non-commercial use only

Gurobi 7.5.2 (mac64, Python) logging started Mon Dec 11 16:12:30 2017

Academic license - for non-commercial use only

Gurobi 7.5.2 (mac64, Python) logging started Mon Dec 11 16:30:23 2017

Academic license - for non-commercial use only

Gurobi 7.5.2 (mac64, Python) logging started Mon Dec 11 16:49:01 2017

Academic license - for non-commercial use only

Gurobi 7.5.2 (mac64, Python) logging started Mon Dec 11 16:55:49 2017

Academic license - for non-commercial use only

Gurobi 7.5.2 (mac64, Python) logging started Tue Dec 12 21:44:21 2017

Academic license - for non-commercial use only

Gurobi 7.5.2 (mac64, Python) logging started Tue Dec 12 21:46:14 2017

Academic license - for non-commercial use only

Gurobi 7.5.2 (mac64, Python) logging started Tue Dec 12 21:53:45 2017

Academic license - for non-commercial use only

Gurobi 7.5.2 (mac64, Python) logging started Tue Dec 12 21:56:09 2017

Academic license - for non-commercial use only

Gurobi 7.5.2 (mac64, Python) logging started Tue Dec 12 21:56:52 2017

Academic license - for non-commercial use only

Gurobi 7.5.2 (mac64, Python) logging started Tue Dec 12 21:57:24 2017

Academic license - for non-commercial use only

Gurobi 7.5.2 (mac64, Python) logging started Tue Dec 12 21:58:31 2017

Academic license - for non-commercial use only

Gurobi 7.5.2 (mac64, Python) logging started Tue Dec 12 23:34:26 2017

Academic license - for non-commercial use only

Gurobi 7.5.2 (mac64, Python) logging started Tue Dec 12 23:49:34 2017

Academic license - for non-commercial use only

Gurobi 7.5.2 (mac64, Python) logging started Wed Dec 13 00:01:14 2017

Academic license - for non-commercial use only

Gurobi 7.5.2 (mac64, Python) logging started Wed Dec 13 00:04:37 2017

Academic license - for non-commercial use only

Gurobi 7.5.2 (mac64, Python) logging started Wed Dec 13 00:07:43 2017

Academic license - for non-commercial use only

Gurobi 7.5.2 (mac64, Python) logging started Wed Dec 13 00:08:39 2017

Academic license - for non-commercial use only

Gurobi 7.5.2 (mac64, Python) logging started Wed Dec 13 14:28:45 2017

Academic license - for non-commercial use only

Gurobi 7.5.2 (mac64, Python) logging started Wed Dec 13 14:33:23 2017

Academic license - for non-commercial use only

Gurobi 7.5.2 (mac64, Python) logging started Wed Dec 13 15:14:49 2017

Academic license - for non-commercial use only

Gurobi 7.5.2 (mac64, Python) logging started Fri Dec 15 15:58:26 2017

Academic license - for non-commercial use only

Gurobi 7.5.2 (mac64, Python) logging started Fri Dec 15 15:58:39 2017

Academic license - for non-commercial use only

Gurobi 7.5.2 (mac64, Python) logging started Mon Dec 18 11:43:33 2017

Academic license - for non-commercial use only

Gurobi 7.5.2 (mac64, Python) logging started Mon Dec 18 15:12:48 2017

Academic license - for non-commercial use only

Gurobi 7.5.2 (mac64, Python) logging started Mon Dec 18 15:15:13 2017

Academic license - for non-commercial use only

Gurobi 7.5.2 (mac64, Python) logging started Mon Dec 18 15:19:26 2017

Academic license - for non-commercial use only

Gurobi 7.5.2 (mac64, Python) logging started Mon Dec 18 15:50:20 2017

Academic license - for non-commercial use only

Gurobi 7.5.2 (mac64, Python) logging started Mon Dec 18 15:52:10 2017

Academic license - for non-commercial use only

Gurobi 7.5.2 (mac64, Python) logging started Thu Jan 11 13:04:30 2018

Academic license - for non-commercial use only

Gurobi 7.5.2 (mac64, Python) logging started Tue Jan 23 18:07:37 2018

Academic license - for non-commercial use only

Gurobi 7.5.2 (mac64, Python) logging started Tue Jan 23 18:10:08 2018

Academic license - for non-commercial use only

Gurobi 7.5.2 (mac64, Python) logging started Tue Jan 30 14:27:22 2018

Academic license - for non-commercial use only
